r = [
0,32,76,47,56,79,37,13,75,91,111,0
];
p = [
0,28,4,26,5,11,4,28,1,16,8,0
];
e = [
0,2,14,11,17,1,20,17,6,6,3,0
];
d = [
0,60,95,73,61,90,41,63,136,107,155,162
];
d_bar = [
0,85,99,96,66,100,45,88,137,121,162,162
];
w = [
0,0.08,3.5,0.47826087,3.4,0.1,5,0.68,6,0.428571429,0.428571429,0
];
